04-arbiter-round-robin/arbiter_round_robin/model/design_smt2.smt2
; SMT-LIBv2 description generated by Yosys 0.57+268 (git sha1 47ca09a01, clang++ 18.1.8 -fPIC -O3)
; yosys-smt2-module arbiter_round_robin
(declare-sort |arbiter_round_robin_s| 0)
(declare-fun |arbiter_round_robin_is| (|arbiter_round_robin_s|) Bool)
; yosys-smt2-witness {"offset": 0, "path": ["$auto$async2sync.cc:107:execute$69"], "smtname": 0, "smtoffset": 0, "type": "reg", "width": 1}
(declare-fun |arbiter_round_robin#0| (|arbiter_round_robin_s|) (_ BitVec 1)) ; $auto$async2sync.cc:107:execute$69
; yosys-smt2-register $auto$async2sync.cc:107:execute$69 1
(define-fun |arbiter_round_robin_n $auto$async2sync.cc:107:execute$69| ((state |arbiter_round_robin_s|)) Bool (= ((_ extract 0 0) (|arbiter_round_robin#0| state)) #b1))
; yosys-smt2-witness {"offset": 0, "path": ["$auto$async2sync.cc:107:execute$75"], "smtname": 1, "smtoffset": 0, "type": "reg", "width": 1}
(declare-fun |arbiter_round_robin#1| (|arbiter_round_robin_s|) (_ BitVec 1)) ; $auto$async2sync.cc:107:execute$75
; yosys-smt2-register $auto$async2sync.cc:107:execute$75 1
(define-fun |arbiter_round_robin_n $auto$async2sync.cc:107:execute$75| ((state |arbiter_round_robin_s|)) Bool (= ((_ extract 0 0) (|arbiter_round_robin#1| state)) #b1))
; yosys-smt2-witness {"offset": 0, "path": ["$auto$async2sync.cc:107:execute$81"], "smtname": 2, "smtoffset": 0, "type": "reg", "width": 1}
(declare-fun |arbiter_round_robin#2| (|arbiter_round_robin_s|) (_ BitVec 1)) ; $auto$async2sync.cc:107:execute$81
; yosys-smt2-register $auto$async2sync.cc:107:execute$81 1
(define-fun |arbiter_round_robin_n $auto$async2sync.cc:107:execute$81| ((state |arbiter_round_robin_s|)) Bool (= ((_ extract 0 0) (|arbiter_round_robin#2| state)) #b1))
; yosys-smt2-witness {"offset": 0, "path": ["$auto$async2sync.cc:116:execute$73"], "smtname": 3, "smtoffset": 0, "type": "reg", "width": 1}
(declare-fun |arbiter_round_robin#3| (|arbiter_round_robin_s|) (_ BitVec 1)) ; $auto$async2sync.cc:116:execute$73
; yosys-smt2-register $auto$async2sync.cc:116:execute$73 1
(define-fun |arbiter_round_robin_n $auto$async2sync.cc:116:execute$73| ((state |arbiter_round_robin_s|)) Bool (= ((_ extract 0 0) (|arbiter_round_robin#3| state)) #b1))
; yosys-smt2-witness {"offset": 0, "path": ["$auto$async2sync.cc:116:execute$79"], "smtname": 4, "smtoffset": 0, "type": "reg", "width": 1}
(declare-fun |arbiter_round_robin#4| (|arbiter_round_robin_s|) (_ BitVec 1)) ; $auto$async2sync.cc:116:execute$79
; yosys-smt2-register $auto$async2sync.cc:116:execute$79 1
(define-fun |arbiter_round_robin_n $auto$async2sync.cc:116:execute$79| ((state |arbiter_round_robin_s|)) Bool (= ((_ extract 0 0) (|arbiter_round_robin#4| state)) #b1))
; yosys-smt2-witness {"offset": 0, "path": ["$auto$async2sync.cc:116:execute$85"], "smtname": 5, "smtoffset": 0, "type": "reg", "width": 1}
(declare-fun |arbiter_round_robin#5| (|arbiter_round_robin_s|) (_ BitVec 1)) ; $auto$async2sync.cc:116:execute$85
; yosys-smt2-register $auto$async2sync.cc:116:execute$85 1
(define-fun |arbiter_round_robin_n $auto$async2sync.cc:116:execute$85| ((state |arbiter_round_robin_s|)) Bool (= ((_ extract 0 0) (|arbiter_round_robin#5| state)) #b1))
(declare-fun |arbiter_round_robin#6| (|arbiter_round_robin_s|) Bool) ; \clk_formal
; yosys-smt2-wire clk 1
; yosys-smt2-clock clk posedge
(define-fun |arbiter_round_robin_n clk| ((state |arbiter_round_robin_s|)) Bool (|arbiter_round_robin#6| state))
; yosys-smt2-input clk_formal 1
; yosys-smt2-wire clk_formal 1
; yosys-smt2-clock clk_formal posedge
; yosys-smt2-witness {"offset": 0, "path": ["\\clk_formal"], "smtname": "clk_formal", "smtoffset": 0, "type": "posedge", "width": 1}
; yosys-smt2-witness {"offset": 0, "path": ["\\clk_formal"], "smtname": "clk_formal", "smtoffset": 0, "type": "input", "width": 1}
(define-fun |arbiter_round_robin_n clk_formal| ((state |arbiter_round_robin_s|)) Bool (|arbiter_round_robin#6| state))
; yosys-smt2-witness {"offset": 0, "path": ["\\f_past_valid"], "smtname": 7, "smtoffset": 0, "type": "reg", "width": 1}
(declare-fun |arbiter_round_robin#7| (|arbiter_round_robin_s|) (_ BitVec 1)) ; \f_past_valid
; yosys-smt2-register f_past_valid 1
; yosys-smt2-wire f_past_valid 1
(define-fun |arbiter_round_robin_n f_past_valid| ((state |arbiter_round_robin_s|)) Bool (= ((_ extract 0 0) (|arbiter_round_robin#7| state)) #b1))
; yosys-smt2-witness {"offset": 0, "path": ["\\gnt"], "smtname": 8, "smtoffset": 0, "type": "reg", "width": 2}
(declare-fun |arbiter_round_robin#8| (|arbiter_round_robin_s|) (_ BitVec 2)) ; \gnt
; yosys-smt2-output gnt 2
; yosys-smt2-register gnt 2
; yosys-smt2-wire gnt 2
(define-fun |arbiter_round_robin_n gnt| ((state |arbiter_round_robin_s|)) (_ BitVec 2) (|arbiter_round_robin#8| state))
; yosys-smt2-witness {"offset": 0, "path": ["\\priority_token"], "smtname": 9, "smtoffset": 0, "type": "reg", "width": 1}
(declare-fun |arbiter_round_robin#9| (|arbiter_round_robin_s|) (_ BitVec 1)) ; \priority_token
; yosys-smt2-register priority_token 1
; yosys-smt2-wire priority_token 1
(define-fun |arbiter_round_robin_n priority_token| ((state |arbiter_round_robin_s|)) Bool (= ((_ extract 0 0) (|arbiter_round_robin#9| state)) #b1))
(declare-fun |arbiter_round_robin#10| (|arbiter_round_robin_s|) (_ BitVec 2)) ; \req
; yosys-smt2-input req 2
; yosys-smt2-wire req 2
; yosys-smt2-witness {"offset": 0, "path": ["\\req"], "smtname": "req", "smtoffset": 0, "type": "input", "width": 2}
(define-fun |arbiter_round_robin_n req| ((state |arbiter_round_robin_s|)) (_ BitVec 2) (|arbiter_round_robin#10| state))
; yosys-smt2-wire slow_tick 1
(define-fun |arbiter_round_robin_n slow_tick| ((state |arbiter_round_robin_s|)) Bool true)
(define-fun |arbiter_round_robin#11| ((state |arbiter_round_robin_s|)) (_ BitVec 1) (bvnot (ite (|arbiter_round_robin#6| state) #b1 #b0))) ; $auto$rtlil.cc:3135:Not$105
; yosys-smt2-assume 0 $auto$formalff.cc:987:execute$106
(define-fun |arbiter_round_robin_u 0| ((state |arbiter_round_robin_s|)) Bool (or (= ((_ extract 0 0) (|arbiter_round_robin#11| state)) #b1) (not true))) ; $auto$formalff.cc:987:execute$106
; yosys-smt2-assert 0 _witness_.check_assert_arbiter_round_robin_v_100_10 arbiter_round_robin.v:100.25-100.52
(define-fun |arbiter_round_robin_a 0| ((state |arbiter_round_robin_s|)) Bool (or (= ((_ extract 0 0) (|arbiter_round_robin#3| state)) #b1) (not (= ((_ extract 0 0) (|arbiter_round_robin#0| state)) #b1)))) ; _witness_.check_assert_arbiter_round_robin_v_100_10
; yosys-smt2-assert 1 _witness_.check_assert_arbiter_round_robin_v_94_5 arbiter_round_robin.v:94.13-94.40
(define-fun |arbiter_round_robin_a 1| ((state |arbiter_round_robin_s|)) Bool (or (= ((_ extract 0 0) (|arbiter_round_robin#4| state)) #b1) (not (= ((_ extract 0 0) (|arbiter_round_robin#1| state)) #b1)))) ; _witness_.check_assert_arbiter_round_robin_v_94_5
; yosys-smt2-assert 2 _witness_.check_assert_arbiter_round_robin_v_99_8 arbiter_round_robin.v:99.25-99.52
(define-fun |arbiter_round_robin_a 2| ((state |arbiter_round_robin_s|)) Bool (or (= ((_ extract 0 0) (|arbiter_round_robin#5| state)) #b1) (not (= ((_ extract 0 0) (|arbiter_round_robin#2| state)) #b1)))) ; _witness_.check_assert_arbiter_round_robin_v_99_8
(define-fun |arbiter_round_robin#12| ((state |arbiter_round_robin_s|)) (_ BitVec 1) (ite (= ((_ extract 0 0) (|arbiter_round_robin#10| state)) #b1) #b1 #b0)) ; $procmux$38_Y
(define-fun |arbiter_round_robin#13| ((state |arbiter_round_robin_s|)) (_ BitVec 1) (ite (= ((_ extract 1 1) (|arbiter_round_robin#10| state)) #b1) #b0 #b1)) ; $procmux$54_Y
(define-fun |arbiter_round_robin#14| ((state |arbiter_round_robin_s|)) (_ BitVec 1) (ite (= ((_ extract 0 0) (|arbiter_round_robin#9| state)) #b1) (|arbiter_round_robin#13| state) (|arbiter_round_robin#12| state))) ; $0\priority_token[0:0]
(define-fun |arbiter_round_robin#15| ((state |arbiter_round_robin_s|)) (_ BitVec 1) (ite (= ((_ extract 1 1) (|arbiter_round_robin#10| state)) #b1) #b0 (|arbiter_round_robin#12| state))) ; $procmux$41_Y
(define-fun |arbiter_round_robin#16| ((state |arbiter_round_robin_s|)) (_ BitVec 1) (ite (= ((_ extract 0 0) (|arbiter_round_robin#9| state)) #b1) (|arbiter_round_robin#15| state) (|arbiter_round_robin#12| state))) ; $0\gnt[1:0] [0]
(define-fun |arbiter_round_robin#17| ((state |arbiter_round_robin_s|)) (_ BitVec 1) (ite (= ((_ extract 1 1) (|arbiter_round_robin#10| state)) #b1) #b1 #b0)) ; $procmux$26_Y
(define-fun |arbiter_round_robin#18| ((state |arbiter_round_robin_s|)) (_ BitVec 1) (ite (= ((_ extract 0 0) (|arbiter_round_robin#10| state)) #b1) #b0 (|arbiter_round_robin#17| state))) ; $procmux$32_Y
(define-fun |arbiter_round_robin#19| ((state |arbiter_round_robin_s|)) (_ BitVec 1) (ite (= ((_ extract 0 0) (|arbiter_round_robin#9| state)) #b1) (|arbiter_round_robin#17| state) (|arbiter_round_robin#18| state))) ; $0\gnt[1:0] [1]
(define-fun |arbiter_round_robin#20| ((state |arbiter_round_robin_s|)) Bool (and (or  (= ((_ extract 0 0) (|arbiter_round_robin#8| state)) #b1) false) (or  (= ((_ extract 1 1) (|arbiter_round_robin#8| state)) #b1) false))) ; $logic_and$arbiter_round_robin.v:94$6_Y
(define-fun |arbiter_round_robin#21| ((state |arbiter_round_robin_s|)) Bool (not (or  (|arbiter_round_robin#20| state) false))) ; $logic_not$arbiter_round_robin.v:94$7_Y
(define-fun |arbiter_round_robin#22| ((state |arbiter_round_robin_s|)) (_ BitVec 1) (bvnot (|arbiter_round_robin#9| state))) ; $eq$arbiter_round_robin.v:100$11_Y
(define-fun |arbiter_round_robin#23| ((state |arbiter_round_robin_s|)) (_ BitVec 1) (ite (= ((_ extract 0 0) (|arbiter_round_robin#8| state)) #b1) #b1 #b0)) ; $procmux$19_Y
(define-fun |arbiter_round_robin#24| ((state |arbiter_round_robin_s|)) (_ BitVec 1) (ite (= ((_ extract 0 0) (|arbiter_round_robin#7| state)) #b1) (|arbiter_round_robin#23| state) #b0)) ; $assert$arbiter_round_robin.v:99$8_EN
(define-fun |arbiter_round_robin#25| ((state |arbiter_round_robin_s|)) (_ BitVec 1) (ite (= ((_ extract 0 0) (|arbiter_round_robin#7| state)) #b1) #b1 #b0)) ; $assert$arbiter_round_robin.v:94$5_EN
(define-fun |arbiter_round_robin#26| ((state |arbiter_round_robin_s|)) (_ BitVec 1) (ite (= ((_ extract 1 1) (|arbiter_round_robin#8| state)) #b1) #b1 #b0)) ; $procmux$15_Y
(define-fun |arbiter_round_robin#27| ((state |arbiter_round_robin_s|)) (_ BitVec 1) (ite (= ((_ extract 0 0) (|arbiter_round_robin#7| state)) #b1) (|arbiter_round_robin#26| state) #b0)) ; $assert$arbiter_round_robin.v:100$10_EN
(define-fun |arbiter_round_robin_a| ((state |arbiter_round_robin_s|)) Bool (and
  (|arbiter_round_robin_a 0| state)
  (|arbiter_round_robin_a 1| state)
  (|arbiter_round_robin_a 2| state)
))
(define-fun |arbiter_round_robin_u| ((state |arbiter_round_robin_s|)) Bool 
  (|arbiter_round_robin_u 0| state)
)
(define-fun |arbiter_round_robin_i| ((state |arbiter_round_robin_s|)) Bool (and
  (= (= ((_ extract 0 0) (|arbiter_round_robin#0| state)) #b1) false) ; $auto$async2sync.cc:107:execute$69
  (= (= ((_ extract 0 0) (|arbiter_round_robin#1| state)) #b1) false) ; $auto$async2sync.cc:107:execute$75
  (= (= ((_ extract 0 0) (|arbiter_round_robin#2| state)) #b1) false) ; $auto$async2sync.cc:107:execute$81
  (= (= ((_ extract 0 0) (|arbiter_round_robin#3| state)) #b1) true) ; $auto$async2sync.cc:116:execute$73
  (= (= ((_ extract 0 0) (|arbiter_round_robin#4| state)) #b1) true) ; $auto$async2sync.cc:116:execute$79
  (= (= ((_ extract 0 0) (|arbiter_round_robin#5| state)) #b1) true) ; $auto$async2sync.cc:116:execute$85
  (= (= ((_ extract 0 0) (|arbiter_round_robin#7| state)) #b1) false) ; f_past_valid
  (= (|arbiter_round_robin#8| state) #b00) ; gnt
  (= (= ((_ extract 0 0) (|arbiter_round_robin#9| state)) #b1) false) ; priority_token
))
(define-fun |arbiter_round_robin_h| ((state |arbiter_round_robin_s|)) Bool true)
(define-fun |arbiter_round_robin_t| ((state |arbiter_round_robin_s|) (next_state |arbiter_round_robin_s|)) Bool (and
  (= (|arbiter_round_robin#14| state) (|arbiter_round_robin#9| next_state)) ; $procdff$68 \priority_token
  (= (concat (|arbiter_round_robin#19| state) (|arbiter_round_robin#16| state)) (|arbiter_round_robin#8| next_state)) ; $procdff$67 \gnt
  (= #b1 (|arbiter_round_robin#7| next_state)) ; $procdff$66 \f_past_valid
  (= (|arbiter_round_robin#9| state) (|arbiter_round_robin#5| next_state)) ; $auto$async2sync.cc:118:execute$86 $auto$async2sync.cc:116:execute$85
  (= (ite (|arbiter_round_robin#21| state) #b1 #b0) (|arbiter_round_robin#4| next_state)) ; $auto$async2sync.cc:118:execute$80 $auto$async2sync.cc:116:execute$79
  (= (|arbiter_round_robin#22| state) (|arbiter_round_robin#3| next_state)) ; $auto$async2sync.cc:118:execute$74 $auto$async2sync.cc:116:execute$73
  (= (|arbiter_round_robin#24| state) (|arbiter_round_robin#2| next_state)) ; $auto$async2sync.cc:110:execute$83 $auto$async2sync.cc:107:execute$81
  (= (|arbiter_round_robin#25| state) (|arbiter_round_robin#1| next_state)) ; $auto$async2sync.cc:110:execute$77 $auto$async2sync.cc:107:execute$75
  (= (|arbiter_round_robin#27| state) (|arbiter_round_robin#0| next_state)) ; $auto$async2sync.cc:110:execute$71 $auto$async2sync.cc:107:execute$69
)) ; end of module arbiter_round_robin
; yosys-smt2-topmod arbiter_round_robin
; end of yosys output
